0 23 98 54 75 23 78 95 45 63 83 41 30 43 56
23 0 53 94 64 65 54 24 64 75 76 54 74 94 56
98 53 0 89 52 95 42 74 89 24 28 19 43 43 52
54 94 89 0 72 83 10 15 29 32 57 32 84 39 23
75 64 52 72 0 42 38 49 23 19 39 87 98 23 22
23 65 85 83 42 0 32 32 53 98 67 39 93 26 47
78 54 42 10 38 32 0 97 43 67 58 85 93 40 39
95 24 74 15 49 32 97 0 58 29 83 51 74 83 70
45 64 89 29 23 53 43 58 0 94 79 30 78 12 88
63 75 24 32 19 98 67 58 83 0 48 32 76 83 90
83 76 28 57 39 67 58 83 79 48 0 48 55 96 22 
41 54 19 32 87 39 85 51 30 32 48 0 99 72 67
30 74 43 84 98 93 93 74 78 76 55 99 0 12 54
43 94 43 39 23 26 40 83 12 83 96 72 12 0 11
56 56 52 23 22 47 39 70 88 90 22 67 54 11 0